n_res = 4;
rc = [ 26, 34, 22, 24 ];
n_tasks = 30;
d = [ 10, 9, 2, 3, 8, 5, 5, 7, 6, 5, 7, 2, 4, 10, 3, 2, 1, 4, 4, 4, 10, 10, 6, 2, 4, 5, 5, 10, 5, 1 ];
rr = [| 7, 9, 2, 0, 0, 7, 0, 0, 8, 3, 0, 6, 4, 6, 4, 9, 8, 6, 8, 2, 6, 6, 9, 9, 0, 0, 9, 0, 3, 8
      | 0, 4, 0, 2, 1, 0, 3, 2, 5, 0, 8, 0, 6, 3, 9, 4, 4, 4, 0, 6, 1, 4, 9, 8, 6, 10, 0, 5, 7, 6
      | 1, 6, 9, 0, 10, 10, 3, 1, 1, 0, 9, 9, 0, 4, 7, 3, 7, 5, 4, 3, 6, 0, 0, 10, 0, 0, 10, 7, 4, 5
      | 0, 7, 3, 0, 9, 4, 1, 0, 0, 8, 7, 2, 10, 6, 1, 0, 7, 6, 5, 10, 0, 7, 4, 6, 5, 3, 5, 0, 7, 3 |];
suc = [ { 4, 5, 8 },
       { 6, 7, 8 },
       { 6, 20, 24 },
       { 9, 12, 14 },
       { 6, 10, 12 },
       { 22, 26, 30 },
       { 9, 10, 12 },
       { 9, 11 },
       { 15, 23 },
       { 11, 13, 22 },
       { 18, 25, 26 },
       { 21, 22 },
       { 14, 25 },
       { 15, 16, 19 },
       { 18, 26 },
       { 17, 18 },
       { 20, 21, 23 },
       { 20, 21, 24 },
       { 24, 27, 28 },
       { 27 },
       { 27, 30 },
       { 23, 25 },
       { 28 },
       { 30 },
       { 29 },
       { 28, 29 },
       { 29 },
       {  },
       {  },
       {  } ];
